(declare-fun p26 (Real) Real)
(declare-fun fee_bl (Real Real) Real)
(declare-fun p20_5 (Real) Real)
(declare-fun p29 (Real) Real)
(declare-fun special (Real) Real)
(declare-fun p33 (Real) Real)
(declare-fun p14_5 (Real) Real)
(assert (forall ((income Real)) (= (p14_5 income) (ite (> income 0) (* 0.145 (ite (> income 57375) 57375 income)) 0))))
(assert (forall ((income Real)) (= (p20_5 income) (ite (> income 57375) (* 0.205 (- (ite (> income 114750) 114750 income) 57375)) 0))))
(assert (forall ((income Real)) (= (p26 income) (ite (> income 114750) (* 0.26 (- (ite (> income 177882) 177882 income) 114750)) 0))))
(assert (forall ((income Real)) (= (p29 income) (ite (> income 177882) (* 0.29 (- (ite (> income 253414) 253414 income) 177882)) 0))))
(assert (forall ((income Real)) (= (p33 income) (ite (> income 253414) (* 0.33 (- income 253414)) 0))))
(assert (forall ((sin Real)) (= (special sin) (ite (= sin 999999999) 0 1))))
(assert (forall ((income Real) (sin Real)) (= (fee_bl income sin) (* (special sin) (+ (+ (+ (+ (p14_5 income) (p20_5 income)) (p26 income)) (p29 income)) (p33 income))))))